language ESSENCE' 1.0

letting fixed be 
[
    [9,0,0,2,4,0,0,0,0],
    [0,5,0,6,9,0,2,3,1],
    [0,2,0,0,5,0,0,9,0],
    [0,9,0,7,0,0,3,2,0],
    [0,0,2,9,3,5,6,0,7],
    [0,7,0,0,0,2,9,0,0],
    [0,6,9,0,2,0,0,7,3],
    [5,1,0,0,7,9,0,6,2],
    [2,0,7,0,8,6,0,0,9]
]